

param n :=10; #Companies
param m :=10; #Queries
       
param b:=
    1 179
    2 118
    3 126
    4 150
    5 90
    6 80
    7 151
    8 157
    9 92
    10 197
    11 168
    12 163
    13 187
    14 97
    15 192
    16 149
    17 127
    18 178
    19 112
    20 187
    ;
    
